NAME : X_38_seed_123_id_4
TYPE : CVRP
DIMENSION : 275
EDGE_WEIGHT_TYPE : EUC_2D
CAPACITY : 10
NODE_COORD_SECTION
1	202	38
2	721	73
3	573	647
4	678	428
5	683	427
6	808	46
7	635	529
8	527	760
9	557	660
10	695	561
11	770	91
12	506	675
13	613	624
14	723	491
15	790	198
16	493	611
17	714	470
18	751	68
19	649	401
20	707	483
21	613	562
22	731	336
23	551	604
24	736	39
25	574	610
26	858	73
27	529	611
28	730	71
29	695	45
30	648	405
31	650	523
32	969	282
33	627	498
34	711	237
35	609	528
36	722	95
37	686	471
38	563	601
39	594	369
40	553	667
41	626	706
42	465	585
43	811	14
44	562	652
45	655	544
46	825	630
47	744	435
48	655	449
49	717	476
50	550	356
51	667	378
52	425	743
53	599	596
54	545	663
55	494	636
56	642	605
57	553	639
58	673	346
59	683	96
60	576	468
61	666	570
62	542	625
63	531	714
64	554	611
65	555	628
66	727	416
67	593	661
68	561	360
69	597	669
70	784	122
71	685	101
72	663	142
73	703	89
74	634	101
75	676	17
76	720	417
77	715	446
78	659	394
79	658	443
80	779	30
81	614	675
82	760	424
83	553	421
84	501	495
85	649	333
86	685	358
87	725	37
88	739	84
89	730	721
90	557	644
91	729	525
92	613	598
93	706	433
94	738	442
95	658	479
96	670	487
97	521	671
98	582	654
99	524	656
100	679	444
101	733	69
102	558	642
103	772	50
104	673	167
105	607	631
106	610	328
107	606	635
108	350	443
109	630	518
110	755	446
111	734	702
112	676	69
113	753	350
114	686	410
115	609	604
116	802	40
117	518	471
118	543	672
119	547	689
120	586	382
121	686	186
122	609	568
123	521	615
124	712	436
125	682	44
126	673	78
127	682	401
128	599	492
129	519	638
130	675	444
131	673	424
132	758	52
133	766	82
134	628	619
135	757	41
136	816	155
137	565	665
138	578	634
139	719	439
140	548	434
141	887	319
142	590	673
143	593	412
144	751	485
145	732	83
146	438	538
147	750	357
148	597	104
149	524	638
150	866	105
151	714	5
152	598	409
153	747	411
154	750	495
155	830	154
156	613	393
157	658	137
158	649	589
159	771	64
160	730	64
161	584	613
162	571	611
163	571	695
164	743	325
165	761	64
166	754	72
167	634	650
168	579	621
169	636	314
170	724	78
171	604	694
172	707	90
173	595	874
174	742	257
175	576	631
176	698	98
177	822	43
178	599	691
179	616	445
180	541	686
181	629	382
182	690	63
183	567	641
184	714	327
185	664	470
186	789	455
187	867	426
188	637	33
189	477	327
190	570	669
191	596	697
192	685	419
193	729	164
194	717	380
195	707	410
196	695	38
197	469	678
198	817	595
199	649	411
200	750	47
201	686	39
202	594	748
203	724	386
204	541	611
205	766	117
206	770	349
207	677	590
208	674	23
209	478	601
210	728	318
211	678	391
212	772	52
213	680	91
214	711	20
215	688	377
216	707	796
217	781	386
218	728	355
219	638	121
220	660	68
221	561	641
222	709	541
223	762	66
224	705	3
225	547	665
226	694	428
227	565	684
228	689	458
229	640	476
230	636	468
231	872	56
232	524	575
233	648	498
234	670	422
235	787	225
236	679	327
237	719	398
238	585	514
239	556	668
240	596	708
241	502	585
242	619	412
243	705	406
244	658	406
245	737	121
246	566	636
247	608	711
248	724	124
249	646	744
250	747	79
251	669	89
252	701	665
253	562	597
254	712	434
255	628	713
256	637	620
257	582	644
258	508	733
259	570	628
260	644	389
261	692	617
262	596	658
263	777	196
264	574	639
265	550	570
266	771	695
267	449	590
268	607	702
269	568	630
270	729	210
271	766	130
272	790	138
273	574	436
274	735	173
275	560	678
DEMAND_SECTION
1	0
2	1
3	1
4	1
5	1
6	1
7	1
8	1
9	1
10	1
11	1
12	1
13	1
14	1
15	1
16	1
17	1
18	1
19	1
20	1
21	1
22	1
23	1
24	1
25	1
26	1
27	1
28	1
29	1
30	1
31	1
32	1
33	1
34	1
35	1
36	1
37	1
38	1
39	1
40	1
41	1
42	1
43	1
44	1
45	1
46	1
47	1
48	1
49	1
50	1
51	1
52	1
53	1
54	1
55	1
56	1
57	1
58	1
59	1
60	1
61	1
62	1
63	1
64	1
65	1
66	1
67	1
68	1
69	1
70	1
71	1
72	1
73	1
74	1
75	1
76	1
77	1
78	1
79	1
80	1
81	1
82	1
83	1
84	1
85	1
86	1
87	1
88	1
89	1
90	1
91	1
92	1
93	1
94	1
95	1
96	1
97	1
98	1
99	1
100	1
101	1
102	1
103	1
104	1
105	1
106	1
107	1
108	1
109	1
110	1
111	1
112	1
113	1
114	1
115	1
116	1
117	1
118	1
119	1
120	1
121	1
122	1
123	1
124	1
125	1
126	1
127	1
128	1
129	1
130	1
131	1
132	1
133	1
134	1
135	1
136	1
137	1
138	1
139	1
140	1
141	1
142	1
143	1
144	1
145	1
146	1
147	1
148	1
149	1
150	1
151	1
152	1
153	1
154	1
155	1
156	1
157	1
158	1
159	1
160	1
161	1
162	1
163	1
164	1
165	1
166	1
167	1
168	1
169	1
170	1
171	1
172	1
173	1
174	1
175	1
176	1
177	1
178	1
179	1
180	1
181	1
182	1
183	1
184	1
185	1
186	1
187	1
188	1
189	1
190	1
191	1
192	1
193	1
194	1
195	1
196	1
197	1
198	1
199	1
200	1
201	1
202	1
203	1
204	1
205	1
206	1
207	1
208	1
209	1
210	1
211	1
212	1
213	1
214	1
215	1
216	1
217	1
218	1
219	1
220	1
221	1
222	1
223	1
224	1
225	1
226	1
227	1
228	1
229	1
230	1
231	1
232	1
233	1
234	1
235	1
236	1
237	1
238	1
239	1
240	1
241	1
242	1
243	1
244	1
245	1
246	1
247	1
248	1
249	1
250	1
251	1
252	1
253	1
254	1
255	1
256	1
257	1
258	1
259	1
260	1
261	1
262	1
263	1
264	1
265	1
266	1
267	1
268	1
269	1
270	1
271	1
272	1
273	1
274	1
275	1
DEPOT_SECTION
1
-1
EOF
